20 1 7
500 854 734 362 384 857 564 13 550 958 357 87 247 896 509 428 993 417 817 264 
455 432 289 597 512 51 819 273 483 540 665 334 745 750 695 129 606 610 141 155 
919 498 594 517 745 102 944 738 871 761 1 325 544 289 273 407 692 443 680 526 
982 344 859 727 93 905 207 51 514 347 557 433 196 150 949 941 252 893 678 122 
5 30 798 548 319 422 954 362 865 985 239 198 680 449 276 773 353 482 175 866 
181 731 650 376 881 951 316 484 843 345 957 199 375 106 746 45 527 51 758 743 
388 996 941 67 444 216 191 796 698 365 13 878 96 15 605 328 965 273 163 159 
6170 4710 7090 3430 5760 4540 7390 4540 8560 4960 1970 2430 4910 1370 3100 2860 3520 5000 810 4010 
43560
